StudentsNr = 10;
InstructorsNr = 78;
DaysNr = 2;
SlotsPerDay = 60;
AvailabilitySlotsLenght = 20;
RoomNr = 2;
ProgrammNr = 1;
DegreeNr = 2;
RolesNr = 0;
CoursesNr = 7;
InstructorsProgramm = [{1}, {1}, {1}, {1}, {1}, {1}, {1}, {1}, {1}, {1}, {1}, {1}, {1}, {1}, {1}, {1}, {1}, {1}, {1}, {1}, {1}, {1}, {1}, {1}, {1}, {1}, {1}, {1}, {1}, {1}, {1}, {1}, {1}, {1}, {1}, {1}, {1}, {1}, {1}, {1}, {1}, {1}, {1}, {1}, {1}, {1}, {1}, {1}, {1}, {1}, {1}, {1}, {1}, {1}, {1}, {1}, {1}, {1}, {1}, {1}, {1}, {1}, {1}, {1}, {1}, {1}, {1}, {1}, {1}, {1}, {1}, {1}, {1}, {1}, {1}, {1}, {1}, {1}];
InstructorRolesPerProgramm = array2d(1..ProgrammNr,{},[]);
InstructorsAvailability = [|0, 1, 1, 1, 1, 1, |1, 0, 0, 0, 1, 1, |0, 1, 1, 1, 1, 0, |0, 0, 1, 1, 1, 1, |0, 1, 1, 0, 1, 1, |1, 1, 0, 1, 1, 0, |0, 0, 1, 1, 1, 1, |1, 1, 1, 1, 1, 1, |0, 1, 1, 1, 1, 0, |0, 1, 1, 1, 1, 1, |1, 1, 1, 0, 0, 0, |1, 1, 1, 0, 0, 0, |1, 1, 1, 0, 0, 0, |1, 0, 0, 1, 0, 0, |1, 0, 1, 1, 0, 1, |1, 1, 1, 1, 1, 1, |1, 1, 1, 1, 1, 0, |0, 0, 1, 1, 1, 1, |1, 1, 1, 1, 1, 1, |1, 1, 1, 0, 1, 1, |0, 1, 1, 1, 1, 1, |0, 0, 0, 0, 0, 0, |1, 0, 1, 1, 0, 1, |1, 1, 1, 1, 1, 1, |0, 0, 0, 0, 0, 0, |0, 1, 1, 1, 1, 1, |1, 1, 1, 1, 1, 1, |0, 0, 0, 0, 1, 1, |1, 1, 1, 1, 1, 1, |0, 1, 0, 1, 1, 0, |0, 0, 1, 1, 1, 1, |0, 1, 1, 1, 1, 1, |1, 1, 1, 0, 1, 1, |0, 0, 1, 1, 0, 1, |0, 1, 1, 1, 1, 1, |0, 1, 1, 1, 0, 1, |0, 0, 1, 1, 1, 1, |0, 0, 1, 1, 0, 1, |1, 1, 1, 1, 1, 1, |1, 1, 1, 1, 1, 1, |0, 1, 1, 1, 1, 1, |0, 1, 1, 0, 0, 1, |0, 0, 0, 0, 0, 0, |1, 1, 1, 0, 1, 0, |1, 1, 1, 0, 0, 1, |0, 0, 1, 1, 1, 1, |1, 1, 1, 1, 1, 1, |0, 1, 1, 1, 1, 1, |1, 1, 0, 0, 0, 1, |1, 1, 0, 1, 1, 1, |1, 0, 0, 0, 0, 1, |1, 1, 1, 1, 1, 1, |0, 1, 1, 1, 1, 1, |1, 1, 1, 1, 1, 1, |0, 1, 1, 1, 1, 0, |0, 0, 0, 1, 1, 1, |1, 0, 0, 0, 1, 1, |1, 1, 1, 1, 1, 1, |1, 0, 0, 1, 1, 0, |1, 0, 1, 0, 1, 1, |0, 1, 1, 0, 1, 1, |0, 1, 1, 1, 1, 0, |0, 0, 0, 1, 1, 1, |1, 0, 1, 0, 1, 1, |0, 1, 1, 1, 1, 1, |1, 1, 1, 1, 1, 0, |1, 1, 1, 1, 1, 1, |0, 0, 0, 0, 0, 0, |1, 1, 1, 1, 1, 1, |0, 1, 1, 0, 1, 1, |0, 0, 1, 0, 0, 1, |0, 1, 1, 1, 1, 1, |0, 0, 0, 0, 0, 1, |0, 0, 1, 0, 1, 0, |0, 0, 1, 1, 0, 0, |1, 1, 1, 1, 0, 1, |1, 0, 1, 1, 1, 1, |0, 1, 1, 1, 0, 1|];
StudentsProgramm = [1, 1, 1, 1, 1, 1, 1, 1, 1, 1];
StudentsDegree = [2, 1, 1, 1, 1, 1, 1, 1, 2, 1];
StudentsSupervisorId = [73, 22, 29, 18, 2, 74, 38, 24, 41, 26];
StudentsCourseIds = [{1, 3, 4, 7}, {2, 3, 5, 6, 7}, {1, 2, 4, 5, 7}, {1, 4, 5, 6, 7}, {2, 3, 5, 6, 7}, {1, 2, 4, 6, 7}, {1, 3, 4, 5, 7}, {1, 2, 3, 4, 6}, {3, 4, 6, 7}, {3, 4, 5, 6, 7}];
StudentsAvailability = [|0, 0, 0, 0, 0, 1, |0, 0, 0, 1, 1, 1, |1, 1, 1, 1, 1, 1, |1, 1, 1, 1, 1, 1, |0, 1, 1, 0, 1, 1, |1, 1, 1, 1, 1, 1, |1, 1, 1, 1, 1, 1, |0, 1, 1, 1, 1, 0, |1, 1, 1, 1, 1, 1, |1, 0, 0, 1, 1, 1|];
TheoryticalMinCard = [4, 5, 5, 5, 5, 5, 5, 5, 4, 5];
CoursesInstructorIds = [{3, 7, 10, 11, 12, 13, 16, 18, 19, 21, 22, 23, 24, 26, 29, 30, 32, 33, 35, 39, 42, 46, 47, 48, 50, 51, 52, 53, 54, 57, 59, 60, 63, 64, 65, 66, 67, 68, 69, 70, 71, 72, 73, 76, 77, 78}, {8, 9, 12, 18, 20, 22, 24, 25, 27, 31, 33, 34, 35, 37, 42, 46, 49, 51, 52, 59, 61, 62, 64, 66, 70, 73, 74, 75}, {1, 3, 4, 5, 10, 13, 15, 17, 18, 19, 21, 22, 23, 27, 28, 29, 30, 31, 32, 35, 36, 37, 39, 40, 42, 44, 45, 46, 47, 48, 49, 50, 51, 52, 54, 55, 56, 59, 62, 66, 67, 70, 71, 75, 77, 78}, {9, 13, 16, 17, 18, 19, 25, 26, 40, 41, 43, 51, 53, 56, 57, 58, 66, 68}, {2, 5, 8, 9, 10, 11, 14, 16, 18, 20, 21, 22, 23, 24, 25, 26, 28, 30, 32, 34, 35, 37, 38, 39, 40, 41, 42, 43, 46, 49, 51, 53, 56, 60, 62, 63, 65, 66, 68, 71, 72, 78}, {6, 15, 17, 27, 28, 30, 43, 48, 52, 55, 59, 60, 77}, {7, 12, 16, 29, 33, 49, 54, 55, 58, 60}];
RolesDemands = [];
RolesContinuity = [];
ExamLen = [2, 2, 2, 2, 2, 2, 2, 2, 2, 2];
LunchTsMinLen = 0;
LunchStarts = [15..44, 82..93];
SupervisorAvailable = 0;
OptimalLunchLenght = [2, 1];
OptimalStartTs = [0, 1];
OptimalFinishTs = [1, 59];
MinimizeRooms = 200;
RolesSoftContinuity = array2d(1..2,{},[]);
SameDegreeInRoom = 20;
Mergeability = 1;
